
[ChangeItem]	OldItemIndex	OldItemOption	NewItemIndex	NewItemOption	Type
0	1378	0	1378	0	1
1	550	148	0	0	1
2	550	149	0	0	1
3	550	151	0	0	1
4	550	152	0	0	1
5	550	154	0	0	1
6	550	155	0	0	1
7	543	163	0	0	1
8	543	164	0	0	1
9	543	165	0	0	1
10	550	166	0	0	1
11	550	167	0	0	1
12	550	168	0	0	1
13	550	169	0	0	1
14	550	170	0	0	1
15	550	171	0	0	1
16	550	172	0	0	1
17	550	173	0	0	1
18	550	174	0	0	1
19	543	175	0	0	1
20	543	176	0	0	1
21	543	177	0	0	1
22	543	178	0	0	1
23	543	179	0	0	1
24	543	180	0	0	1
25	543	181	0	0	1
26	543	182	0	0	1
27	543	183	0	0	1
28	543	184	0	0	1
29	543	185	0	0	1
30	543	186	0	0	1
31	543	219	0	0	1
32	1367	1324	0	0	1
33	1368	1325	0	0	1
34	1369	1326	0	0	1
35	1370	1327	0	0	1
36	1371	1328	0	0	1
37	1362	0	0	0	1
38	1363	0	0	0	1
39	1364	0	0	0	1
40	1365	0	0	0	1
41	1366	0	0	0	1
42	560	3957	0	0	1
43	560	3956	0	0	1
44	560	3955	0	0	1
45	560	3954	0	0	1
46	560	3953	0	0	1
47	640	0	0	0	1
48	641	0	0	0	1
49	642	0	0	0	1
50	643	0	0	0	1
51	644	0	0	0	1
52	1187	0	1187	0	3
53	1312	0	1312	0	3
54	1211	1317	1441	1321	4
55	1212	1320	1441	1321	4
56	692	1	692	81	4
57	692	2	692	81	4
58	692	3	692	81	4
59	692	4	692	81	4
60	692	5	692	81	4
61	692	6	692	81	4
62	692	7	692	81	4
63	692	8	692	81	4
64	692	9	692	81	4
65	692	10	692	81	4
66	692	11	692	81	4
67	692	12	692	81	4
68	692	13	692	81	4
69	692	14	692	81	4
70	692	15	692	81	4
71	692	16	692	81	4
72	692	17	692	81	4
73	692	18	692	81	4
74	692	19	692	81	4
75	692	20	692	81	4
76	692	21	692	82	4
77	692	22	692	82	4
78	692	23	692	82	4
79	692	24	692	82	4
80	692	25	692	82	4
81	692	26	692	82	4
82	692	27	692	82	4
83	692	28	692	82	4
84	692	29	692	82	4
85	692	30	692	82	4
86	692	31	692	82	4
87	692	32	692	82	4
88	692	33	692	82	4
89	692	34	692	82	4
90	692	35	692	82	4
91	692	36	692	82	4
92	692	37	692	82	4
93	692	38	692	82	4
94	692	39	692	82	4
95	692	40	692	82	4
96	692	41	692	83	4
97	692	42	692	83	4
98	692	43	692	83	4
99	692	44	692	83	4
100	692	45	692	83	4
101	692	46	692	83	4
102	692	47	692	83	4
103	692	48	692	83	4
104	692	49	692	83	4
105	692	50	692	83	4
106	692	51	692	83	4
107	692	52	692	83	4
108	692	53	692	83	4
109	692	54	692	83	4
110	692	55	692	83	4
111	692	56	692	83	4
112	692	57	692	83	4
113	692	58	692	83	4
114	692	59	692	83	4
115	692	60	692	83	4
116	692	61	692	81	4
117	692	62	692	81	4
118	692	63	692	81	4
119	692	64	692	81	4
120	692	65	692	81	4
121	692	66	692	82	4
122	692	67	692	82	4
123	692	68	692	82	4
124	692	69	692	82	4
125	692	70	692	82	4
126	692	71	692	83	4
127	692	72	692	83	4
128	692	73	692	83	4
129	692	74	692	83	4
130	692	75	692	83	4
131	692	76	692	84	4
132	692	77	692	84	4
133	692	78	692	84	4
134	692	79	692	84	4
135	692	80	692	84	4
136	601	1241	945	1288	4
137	682	0	682	1	4
138	1619	0	5	50	4
139	783	1	783	0	4
140	2	536870912	2	0	4
141	657	200	2416	0	4
142	657	400	2417	0	4
143	658	100	2420	0	4
144	658	200	2421	0	4
145	659	100	2424	0	4
146	659	200	2425	0	4
147	660	10	2428	0	4
148	660	15	2429	0	4
149	661	10	2432	0	4
150	661	15	2433	0	4
151	662	3	2436	0	4
152	662	6	2437	0	4
153	664	10	2440	0	4
154	664	20	2441	0	4
155	665	20	2444	0	4
156	665	40	2445	0	4
157	848	600	2417	0	4
158	848	1200	2418	0	4
159	849	300	2421	0	4
160	849	600	2422	0	4
161	850	200	2425	0	4
162	850	400	2426	0	4
163	851	20	2429	0	4
164	851	35	2430	0	4
165	852	20	2433	0	4
166	852	35	2434	0	4
167	647	10	2460	0	4
168	647	15	2461	0	4
169	853	4	2437	0	4
170	853	8	2438	0	4
171	855	15	2441	0	4
172	855	30	2442	0	4
173	856	30	2445	0	4
174	856	60	2446	0	4
175	669	20	2461	0	4
176	669	30	2462	0	4
177	860	1200	2418	0	4
178	860	2400	2419	0	4
179	861	600	2422	0	4
180	861	1200	2423	0	4
181	862	300	2426	0	4
182	862	600	2427	0	4
183	863	30	2430	0	4
184	863	50	2431	0	4
185	864	30	2434	0	4
186	864	50	2435	0	4
187	672	10	2450	0	4
188	672	15	2451	0	4
189	673	10	2454	0	4
190	673	15	2455	0	4
191	674	70	2458	0	4
192	674	90	2459	0	4
193	865	6	2438	0	4
194	865	12	2439	0	4
195	867	20	2442	0	4
196	867	40	2443	0	4
197	868	50	2446	0	4
198	868	100	2447	0	4
199	2652	0	10	0	4
200	2653	0	1	0	4
201	2656	0	1425	0	4
202	2657	0	1426	0	4
203	1268	1	1268	0	4
204	2187	1	2187	0	4
205	3802	0	3802	1	4
206	3802	129	3802	1	4
207	755	1	3896	1	4
208	626	1	2842	10000	4
209	626	2	2842	10000	4
210	626	3	2842	10000	4
211	626	4	2842	10000	4
212	626	5	2842	10000	4
213	626	6	2842	10000	4
214	626	7	2842	10000	4
215	626	8	2842	10000	4
216	626	9	2842	10000	4
217	626	10	2842	10000	4
218	626	11	2842	10000	4
219	626	12	2842	10000	4
220	626	13	2842	10000	4
221	626	14	2842	10000	4
222	626	15	2842	10000	4
223	626	16	2842	10000	4
224	626	18	2842	10000	4
225	626	19	2842	10000	4
226	626	22	2842	10000	4
227	626	23	2842	10000	4
228	626	24	2842	10000	4
229	626	25	2842	10000	4
230	626	26	2842	10000	4
231	626	30	2842	10000	4
232	626	32	2842	10000	4
233	626	33	2842	10000	4
234	626	34	2842	10000	4
235	626	35	2842	10000	4
236	626	36	2842	10000	4
237	626	37	2842	10000	4
238	626	38	2842	10000	4
239	626	39	2842	10000	4
240	626	40	2842	10000	4
241	626	41	2842	10000	4
242	626	42	2842	10000	4
243	626	50	2842	10000	4
244	626	51	2842	10000	4
245	626	52	2842	10000	4
246	626	53	2842	10000	4
247	626	54	2842	10000	4
248	626	55	2842	10000	4
249	626	56	2842	10000	4
250	626	57	2842	10000	4
251	626	58	2842	10000	4
252	626	59	2842	10000	4
253	626	63	2842	10000	4
254	626	65	2842	10000	4
255	626	66	2842	10000	4
256	626	75	2842	10000	4
257	626	76	2842	10000	4
258	626	77	2842	10000	4
259	626	78	2842	10000	4
260	626	79	2842	10000	4
261	626	80	2842	10000	4
262	626	81	2842	10000	4
263	626	82	2842	10000	4
264	626	83	2842	10000	4
265	626	84	2842	10000	4
266	626	85	2842	10000	4
267	626	86	2842	10000	4
268	626	87	2842	10000	4
269	626	88	2842	10000	4
270	626	89	2842	10000	4
271	626	90	2842	10000	4
272	626	91	2842	10000	4
273	626	92	2842	10000	4
274	626	93	2842	10000	4
275	626	95	2842	10000	4
276	626	96	2842	10000	4
277	626	97	2842	10000	4
278	626	98	2842	10000	4
279	626	99	2842	10000	4
280	626	100	2842	10000	4
281	626	101	2842	10000	4
282	626	102	2842	10000	4
283	626	103	2842	10000	4
284	626	104	2842	10000	4
285	626	105	2842	10000	4
286	626	106	2842	10000	4
287	626	107	2842	10000	4
288	626	108	2842	10000	4
289	626	109	2842	10000	4
290	626	110	2842	10000	4
291	626	111	2842	10000	4
292	626	112	2842	10000	4
293	626	113	2842	10000	4
294	626	114	2842	10000	4
295	626	115	2842	10000	4
296	626	116	2842	10000	4
297	626	117	2842	10000	4
298	626	118	2842	10000	4
299	626	119	2842	10000	4
300	626	120	2842	10000	4
301	626	121	2842	10000	4
302	626	122	2842	10000	4
303	626	123	2842	10000	4
304	3102	3935	2842	99000000	4
305	560	3934	3840	0	4
306	560	3933	3841	0	4
307	560	3932	3842	0	4
308	560	3931	3843	0	4
309	560	3930	3844	0	4
310	560	3929	3845	0	4
311	560	3928	3846	0	4
312	560	3927	3847	0	4
313	560	3926	3848	0	4
314	560	3925	3850	0	4
315	560	3924	3851	0	4
316	560	3923	3852	0	4
317	560	3922	3853	0	4
318	560	3921	3854	0	4
319	560	3920	3855	0	4
320	560	3919	3856	0	4
321	2921	9737626	2921	268435477	4
322	2922	9737626	2922	268435477	4
323	2923	9737626	2923	268435477	4
324	2924	10790314	2924	536876307	4
325	2925	10790314	2925	536876051	4
326	2926	11843002	2926	536876053	4
327	2927	9737626	2927	268435477	4
328	2928	9737626	2928	268435477	4
329	2929	9737626	2929	268435477	4
330	2930	10790314	2930	536876307	4
331	2931	10790314	2931	536876051	4
332	2932	11843002	2932	536876053	4
333	2933	9737626	2933	268435477	4
334	2934	9737626	2934	268435477	4
335	2935	9737626	2935	268435477	4
336	2936	10790314	2936	536876307	4
337	2937	10790314	2937	536876051	4
338	2938	11843002	2938	536876053	4
339	2939	9737626	2939	268435477	4
340	2940	9737626	2940	268435477	4
341	2941	9737626	2941	268435477	4
342	2942	10790314	2942	536876307	4
343	2943	10790314	2943	536876051	4
344	2944	11843002	2944	536876053	4
345	2945	9737626	2945	268435477	4
346	2946	9737626	2946	268435477	4
347	2947	9737626	2947	268435477	4
348	2948	10790314	2948	536876307	4
349	2949	10790314	2949	536876051	4
350	2950	11843002	2950	536876053	4
351	2951	9737626	2951	268435477	4
352	2952	9737626	2952	268435477	4
353	2953	9737626	2953	268435477	4
354	2954	10790314	2954	536876307	4
355	2955	10790314	2955	536876051	4
356	2956	11843002	2956	536876053	4
357	2957	9540245	2957	536876318	4
358	2958	9540245	2958	536876318	4
359	2959	10592933	2959	536878609	4
360	2960	10592933	2960	536878609	4
361	2961	11645621	2961	536878609	4
362	2962	11645621	2962	536878609	4
363	2963	9540245	2963	536876318	4
364	2964	9540245	2964	536876318	4
365	2965	10592933	2965	536878609	4
366	2966	10592933	2966	536878609	4
367	2967	11645621	2967	536878609	4
368	2968	11645621	2968	536878609	4
369	2969	9540245	2969	536876318	4
370	2970	9540245	2970	536876318	4
371	2971	10592933	2971	536878609	4
372	2972	10592933	2972	536878609	4
373	2973	11645621	2973	536878609	4
374	2974	11645621	2974	536878609	4
375	2975	9540243	2975	536875794	4
376	2976	9540243	2976	536875794	4
377	2977	10592931	2977	536875282	4
378	2978	10592931	2978	536875282	4
379	2979	11645619	2979	536875794	4
380	2980	11645619	2980	536875794	4
381	2981	9540243	2981	536875794	4
382	2982	9540243	2982	536875794	4
383	2983	10592931	2983	536875282	4
384	2984	10592931	2984	536875282	4
385	2985	11645619	2985	536875794	4
386	2986	11645619	2986	536875794	4
387	2987	9540243	2987	536875794	4
388	2988	9540243	2988	536875794	4
389	2989	10592931	2989	536875282	4
390	2990	10592931	2990	536875282	4
391	2991	11645619	2991	536875794	4
392	2992	11645619	2992	536875794	4
393	2993	9739166	2993	536875794	4
394	2994	9739166	2994	536875794	4
395	2995	10791854	2995	536877841	4
396	2996	10791854	2996	536877841	4
397	2997	11844542	2997	536876308	4
398	2998	11844542	2998	536876308	4
399	2999	9739166	2999	536877854	4
400	3000	9739166	3000	536877854	4
401	3001	10791854	3001	536878609	4
402	3002	10791854	3002	536878609	4
403	3003	11844542	3003	536876308	4
404	3004	11844542	3004	536876308	4
405	3005	9739166	3005	536877854	4
406	3006	9739166	3006	536877854	4
407	3007	10791854	3007	536878609	4
408	3008	10791854	3008	536878609	4
409	3009	11844542	3009	536876308	4
410	3010	11844542	3010	536876308	4
411	3011	9606293	3011	536875541	4
412	3012	9606293	3012	536875541	4
413	3013	10658981	3013	536875541	4
414	3014	10658981	3014	536875541	4
415	3015	11711669	3015	536876053	4
416	3016	11711669	3016	536876053	4
417	3017	9606293	3017	536875540	4
418	3018	9606293	3018	536875540	4
419	3019	10658981	3019	536875540	4
420	3020	10658981	3020	536875540	4
421	3021	11711669	3021	536876053	4
422	3022	11711669	3022	536876053	4
423	3023	9606293	3023	536875541	4
424	3024	9606293	3024	536875541	4
425	3025	10658981	3025	536875541	4
426	3026	10658981	3026	536875541	4
427	3027	11711669	3027	536876053	4
428	3028	11711669	3028	536876053	4
429	33554533	0	33554533	1	4
430	4086	0	0	0	1
431	4087	0	0	0	1
432	4088	0	0	0	1
433	2246	0	2246	100532	4
434	2246	100	2246	100532	4
435	449	85	0	0	1
436	457	110	0	0	1
437	472	144	0	0	1
438	447	259	0	0	1
439	511	324	0	0	1
440	512	327	0	0	1
441	514	337	0	0	1
442	530	356	0	0	1
443	520	357	0	0	1
444	521	359	0	0	1
445	524	361	0	0	1
446	529	362	0	0	1
447	457	376	0	0	1
448	563	387	0	0	1
449	461	392	0	0	1
450	509	394	0	0	1
451	463	396	0	0	1
452	576	421	0	0	1
453	577	423	0	0	1
454	540	451	0	0	1
455	536	454	0	0	1
456	522	455	0	0	1
457	531	460	0	0	1
458	534	483	0	0	1
459	1509	1145	0	0	1
460	1506	1146	0	0	1
461	602	1220	0	0	1
462	33554628	1	33554628	0	4
463	33554629	1	33554629	0	4
464	33554630	1	33554630	0	4
465	438	2152	0	0	1
466	2850	2145	0	0	1
467	3083	1	0	0	1
468	2202	2130	0	0	1
469	1660	2131	0	0	1
470	1538	2143	0	0	1
471	1	1	1	0	4
472	2875	3198	0	0	1
473	2875	3199	0	0	1
474	2875	3200	0	0	1
475	33554552	21100	33554552	2110	1
476	1958	0	0	0	1
477	1959	0	0	0	1
478	1996	0	0	0	1
479	2001	0	0	0	1
480	2010	0	0	0	1
481	2004	0	0	0	1
482	33554906	1	0	0	1
483	33554907	1	0	0	1
484	1522	0	1522	0	3
485	1523	0	1523	0	3
486	1524	0	1524	0	3
487	1525	0	1525	0	3
488	1526	0	1526	0	3
489	1527	0	1527	0	3
490	1528	0	1528	0	3
491	1529	0	1529	0	3
492	1530	0	1530	0	3
493	1531	0	1531	0	3
494	1532	0	1532	0	3
495	33555353	0	33555353	0	3
496	33555357	0	33555357	0	4
497	33555356	0	33555356	0	4
498	33554571	1800	33554571	150	4
499	2468	0	33555594	0	4
500	2469	0	33555594	0	4
501	2470	0	33555594	0	4
502	2471	0	33555594	0	4
503	2476	0	34079857	0	4
504	2477	0	34079857	0	4
505	2478	0	34079857	0	4
506	2479	0	34079857	0	4
507	2480	0	34079858	0	4
508	2481	0	34079858	0	4
509	2482	0	34079858	0	4
510	2483	0	34079858	0	4
511	2484	0	34079859	0	4
512	2485	0	34079859	0	4
513	2486	0	34079859	0	4
514	2487	0	34079859	0	4
515	2488	0	34079860	0	4
516	2489	0	34079860	0	4
517	2490	0	34079860	0	4
518	2491	0	34079860	0	4
519	2492	0	34079861	0	4
520	2493	0	34079861	0	4
521	2494	0	34079861	0	4
522	2495	0	34079861	0	4
523	2496	0	34079862	0	4
524	2497	0	34079862	0	4
525	2498	0	34079862	0	4
526	2499	0	34079862	0	4
527	2500	0	33555575	0	4
528	2501	0	33555575	0	4
529	2502	0	33555575	0	4
530	2503	0	33555575	0	4
531	2504	0	33555576	0	4
532	2505	0	33555576	0	4
533	2506	0	33555576	0	4
534	2507	0	33555576	0	4
535	2508	0	33555577	0	4
536	2509	0	33555577	0	4
537	2510	0	33555577	0	4
538	2511	0	33555577	0	4
539	2512	0	33555578	0	4
540	2513	0	33555578	0	4
541	2514	0	33555578	0	4
542	2515	0	33555578	0	4
543	2516	0	33555579	0	4
544	2517	0	33555579	0	4
545	2518	0	33555579	0	4
546	2519	0	33555579	0	4
547	2520	0	33555588	0	4
548	2521	0	33555588	0	4
549	2522	0	33555588	0	4
550	2523	0	33555588	0	4
551	2524	0	33555589	0	4
552	2525	0	33555589	0	4
553	2526	0	33555589	0	4
554	2527	0	33555589	0	4
555	2528	0	33555590	0	4
556	2529	0	33555590	0	4
557	2530	0	33555590	0	4
558	2531	0	33555590	0	4
559	2592	0	33555580	0	4
560	2593	0	33555580	0	4
561	2594	0	33555580	0	4
562	2595	0	33555580	0	4
563	2596	0	33555581	0	4
564	2597	0	33555581	0	4
565	2598	0	33555581	0	4
566	2599	0	33555581	0	4
567	2636	0	33555582	0	4
568	2637	0	33555582	0	4
569	2638	0	33555582	0	4
570	2639	0	33555582	0	4
571	2532	0	33555583	0	4
572	2533	0	33555583	0	4
573	2534	0	33555583	0	4
574	2535	0	33555583	0	4
575	2536	0	33555584	0	4
576	2537	0	33555584	0	4
577	2538	0	33555584	0	4
578	2539	0	33555584	0	4
579	2540	0	33555585	0	4
580	2541	0	33555585	0	4
581	2542	0	33555585	0	4
582	2543	0	33555585	0	4
583	2544	0	33555586	0	4
584	2545	0	33555586	0	4
585	2546	0	33555586	0	4
586	2547	0	33555586	0	4
587	2548	0	33555587	0	4
588	2549	0	33555587	0	4
589	2550	0	33555587	0	4
590	2551	0	33555587	0	4
591	3232	0	33555591	0	4
592	3233	0	33555591	0	4
593	3234	0	33555591	0	4
594	3235	0	33555591	0	4
595	3236	0	33555592	0	4
596	3237	0	33555592	0	4
597	3238	0	33555592	0	4
598	3239	0	33555592	0	4
599	3240	0	33555593	0	4
600	3241	0	33555593	0	4
601	3242	0	33555593	0	4
602	3243	0	33555593	0	4
603	441	2161	441	2160	4
604	2697	2166	2697	2165	4
605	3240	3236	33555593	0	4
606	3241	3237	33555593	0	4
607	3242	3238	33555593	0	4
608	3243	3239	33555593	0	4
609	3236	3236	33555592	0	4
610	3237	3237	33555592	0	4
611	3238	3238	33555592	0	4
612	3239	3239	33555592	0	4
613	33554726	0	33558822	1	4
614	3344	0	0	0	1
615	3345	0	0	0	1
616	3346	0	0	0	1
617	33554534	0	0	0	1
618	33554535	0	0	0	1
619	33554536	0	0	0	1
620	33554537	0	0	0	1
621	33554538	0	0	0	1
622	33554539	0	0	0	1
623	765	0	33555638	0	4
624	766	0	33555638	0	4
625	767	0	33555638	0	4
626	768	0	33555640	0	4
627	769	0	33555640	0	4
628	770	0	33555640	0	4
629	771	0	33555640	0	4
630	772	0	33555639	0	4
631	773	0	33555639	0	4
632	774	0	33555639	0	4
633	775	0	33555641	0	4
634	776	0	33555641	0	4
635	777	0	33555641	0	4
636	872	0	33555642	0	4
637	873	0	33555642	0	4
638	874	0	33555642	0	4
639	875	0	33555645	0	4
640	876	0	33555645	0	4
641	877	0	33555645	0	4
642	878	0	33555645	0	4
643	879	0	33555643	0	4
644	880	0	33555643	0	4
645	881	0	33555643	0	4
646	882	0	33555646	0	4
647	883	0	33555646	0	4
648	884	0	33555646	0	4
649	885	0	33555646	0	4
650	886	0	33555644	0	4
651	887	0	33555644	0	4
652	888	0	33555644	0	4
653	889	0	33555647	0	4
654	890	0	33555647	0	4
655	3585	0	33555647	0	4
656	3586	0	33555647	0	4
657	3587	0	33555641	0	4
658	33554890	0	33555638	0	4
659	33554891	0	33555639	0	4
660	33554892	0	33555642	0	4
661	33554893	0	33555643	0	4
662	33554894	0	33555644	0	4
663	33555649	0	33559745	2169	4
664	1997	0	1999	0	4
665	1995	0	2000	0	4
666	2348	0	2000	0	4
667	1990	0	1994	0	4
668	1976	0	1980	0	4
669	33554682	83951616	33554682	66816	4
670	33554682	84017152	33554682	132352	4
671	33554682	84082688	33554682	197888	4
672	33554682	84148224	33554682	263424	4
673	33554682	84213760	33554682	328960	4
674	33554682	84279296	33554682	394496	4
675	33554682	84344832	33554682	460032	4
676	33554682	100728832	33554682	67072	4
677	33554682	100794368	33554682	132608	4
678	33554682	100859904	33554682	198144	4
679	33554682	100925440	33554682	263680	4
680	33554682	100990976	33554682	329216	4
681	33554682	101056512	33554682	394752	4
682	33554682	101122048	33554682	460288	4
683	33554682	117506048	33554682	67328	4
684	33554682	117571584	33554682	132864	4
685	33554682	117637120	33554682	198400	4
686	33554682	117702656	33554682	263936	4
687	33554682	117768192	33554682	329472	4
688	33554682	117833728	33554682	395008	4
689	33554682	117899264	33554682	460544	4
690	33556186	0	33556186	0	3
691	33556187	0	33556187	0	3
692	2382	0	0	0	1
693	1791	1	1791	0	4
694	1792	1	1792	0	4
695	1797	1	1797	0	4
696	1798	1	1798	0	4
697	1803	1	1803	0	4
698	1804	1	1804	0	4
699	1809	1	1809	0	4
700	1810	1	1810	0	4
701	1815	1	1815	0	4
702	1816	1	1816	0	4
703	1830	1	1830	0	4
704	1831	1	1831	0	4
705	1821	1	1821	0	4
706	1822	1	1822	0	4
707	1824	1	1824	0	4
708	1825	1	1825	0	4
709	9	1	9	0	4
710	10	1	10	0	4
711	1	1	1	0	4
712	1214	1	1214	0	4
713	33556422	1	33556422	0	4
714	582	1	582	0	4
715	583	1	583	0	4
716	2	1	2	0	4
717	1215	1	1215	0	4
718	33556421	1	33556421	0	4
719	2378	0	2378	1	4
720	2379	0	2379	1	4
721	2380	0	2380	1	4
722	2381	0	2381	1	4
723	33556069	0	33556069	1	4
724	33556070	0	33556070	1	4
725	33556071	0	33556071	1	4
726	33556072	0	33556072	1	4
727	33556073	0	33556073	1	4
728	33556120	0	33556120	1	4
729	33556526	0	33556526	1	4
730	33556616	0	33556616	1	4
731	33554824	0	33557253	0	4
732	33555939	0	33557253	0	4
733	33557253	0	33557253	0	4
734	33557253	1	33557253	0	4
735	33557986	0	34082274	1	4
736	33555215	1000	33557994	1000	4

[ChangeWeapon]	ItemIndex	ItemDuration	TriggerKind	ChangeKind	ChangeDuration
0	1633	12	108129	108129	31
1	1634	12	108130	108130	31
2	1635	12	108131	108131	31
3	1636	12	108132	108132	31
4	1637	12	108133	108133	31
5	1638	12	108134	108134	31
6	1639	12	108135	108135	31
7	1640	12	108136	108136	31
8	1641	12	108137	108137	31
9	1642	12	108138	108138	31
10	1643	12	108139	108139	31
11	1644	12	108140	108140	31
12	1645	12	108141	108141	31
13	1646	12	108142	108142	31
14	1647	12	108143	108143	31
15	1648	12	108144	108144	31
16	1649	12	108145	108145	31
17	1650	12	108146	108146	31
18	1651	12	108147	108147	31
19	1652	12	108148	108148	31
20	1653	12	108149	108149	31
21	1654	12	108150	108150	31
22	1655	12	108151	108151	31
23	1656	12	108152	108152	31
